\ SCIP STATISTICS
\   Problem name     : enlight8
\   Variables        : 128 (64 binary, 64 integer, 0 implicit integer, 0 continuous)
\   Constraints      : 64
Minimize
 Obj: +1 x#8#8 +1 x#1#1 +1 x#1#2 +1 x#1#3 +1 x#1#4 +1 x#1#5 +1 x#1#6 +1 x#1#7 +1 x#1#8 +1 x#2#1 +1 x#2#2
      +1 x#2#3 +1 x#2#4 +1 x#2#5 +1 x#2#6 +1 x#2#7 +1 x#2#8 +1 x#3#1 +1 x#3#2 +1 x#3#3 +1 x#3#4 +1 x#3#5
      +1 x#3#6 +1 x#3#7 +1 x#3#8 +1 x#4#1 +1 x#4#2 +1 x#4#3 +1 x#4#4 +1 x#4#5 +1 x#4#6 +1 x#4#7 +1 x#4#8
      +1 x#5#1 +1 x#5#2 +1 x#5#3 +1 x#5#4 +1 x#5#5 +1 x#5#6 +1 x#5#7 +1 x#5#8 +1 x#6#1 +1 x#6#2 +1 x#6#3
      +1 x#6#4 +1 x#6#5 +1 x#6#6 +1 x#6#7 +1 x#6#8 +1 x#7#1 +1 x#7#2 +1 x#7#3 +1 x#7#4 +1 x#7#5 +1 x#7#6
      +1 x#7#7 +1 x#7#8 +1 x#8#1 +1 x#8#2 +1 x#8#3 +1 x#8#4 +1 x#8#5 +1 x#8#6 +1 x#8#7
Subject to
 inner_area_1: +1 x#1#2 +1 x#2#1 +1 x#2#2 +1 x#2#3 +1 x#3#2 -2 y#2#2 = +0
 inner_area_2: +1 x#1#3 +1 x#2#2 +1 x#2#3 +1 x#2#4 +1 x#3#3 -2 y#2#3 = +0
 inner_area_3: +1 x#1#4 +1 x#2#3 +1 x#2#4 +1 x#2#5 +1 x#3#4 -2 y#2#4 = +0
 inner_area_4: +1 x#1#5 +1 x#2#4 +1 x#2#5 +1 x#2#6 +1 x#3#5 -2 y#2#5 = +0
 inner_area_5: +1 x#1#6 +1 x#2#5 +1 x#2#6 +1 x#2#7 +1 x#3#6 -2 y#2#6 = +0
 inner_area_6: +1 x#1#7 +1 x#2#6 +1 x#2#7 +1 x#2#8 +1 x#3#7 -2 y#2#7 = +0
 inner_area_7: +1 x#2#2 +1 x#3#1 +1 x#3#2 +1 x#3#3 +1 x#4#2 -2 y#3#2 = +0
 inner_area_8: +1 x#2#3 +1 x#3#2 +1 x#3#3 +1 x#3#4 +1 x#4#3 -2 y#3#3 = +0
 inner_area_9: +1 x#2#4 +1 x#3#3 +1 x#3#4 +1 x#3#5 +1 x#4#4 -2 y#3#4 = +0
 inner_area_10: +1 x#2#5 +1 x#3#4 +1 x#3#5 +1 x#3#6 +1 x#4#5 -2 y#3#5 = +0
 inner_area_11: +1 x#2#6 +1 x#3#5 +1 x#3#6 +1 x#3#7 +1 x#4#6 -2 y#3#6 = +0
 inner_area_12: +1 x#2#7 +1 x#3#6 +1 x#3#7 +1 x#3#8 +1 x#4#7 -2 y#3#7 = +0
 inner_area_13: +1 x#3#2 +1 x#4#1 +1 x#4#2 +1 x#4#3 +1 x#5#2 -2 y#4#2 = +0
 inner_area_14: +1 x#3#3 +1 x#4#2 +1 x#4#3 +1 x#4#4 +1 x#5#3 -2 y#4#3 = +0
 inner_area_15: +1 x#3#4 +1 x#4#3 +1 x#4#4 +1 x#4#5 +1 x#5#4 -2 y#4#4 = +0
 inner_area_16: +1 x#3#5 +1 x#4#4 +1 x#4#5 +1 x#4#6 +1 x#5#5 -2 y#4#5 = +0
 inner_area_17: +1 x#3#6 +1 x#4#5 +1 x#4#6 +1 x#4#7 +1 x#5#6 -2 y#4#6 = +0
 inner_area_18: +1 x#3#7 +1 x#4#6 +1 x#4#7 +1 x#4#8 +1 x#5#7 -2 y#4#7 = +0
 inner_area_19: +1 x#4#2 +1 x#5#1 +1 x#5#2 +1 x#5#3 +1 x#6#2 -2 y#5#2 = +0
 inner_area_20: +1 x#4#3 +1 x#5#2 +1 x#5#3 +1 x#5#4 +1 x#6#3 -2 y#5#3 = +0
 inner_area_21: +1 x#4#4 +1 x#5#3 +1 x#5#4 +1 x#5#5 +1 x#6#4 -2 y#5#4 = +0
 inner_area_22: +1 x#4#5 +1 x#5#4 +1 x#5#5 +1 x#5#6 +1 x#6#5 -2 y#5#5 = +0
 inner_area_23: +1 x#4#6 +1 x#5#5 +1 x#5#6 +1 x#5#7 +1 x#6#6 -2 y#5#6 = +0
 inner_area_24: +1 x#4#7 +1 x#5#6 +1 x#5#7 +1 x#5#8 +1 x#6#7 -2 y#5#7 = +0
 inner_area_25: +1 x#5#2 +1 x#6#1 +1 x#6#2 +1 x#6#3 +1 x#7#2 -2 y#6#2 = +0
 inner_area_26: +1 x#5#3 +1 x#6#2 +1 x#6#3 +1 x#6#4 +1 x#7#3 -2 y#6#3 = +0
 inner_area_27: +1 x#5#4 +1 x#6#3 +1 x#6#4 +1 x#6#5 +1 x#7#4 -2 y#6#4 = +0
 inner_area_28: +1 x#5#5 +1 x#6#4 +1 x#6#5 +1 x#6#6 +1 x#7#5 -2 y#6#5 = +0
 inner_area_29: +1 x#5#6 +1 x#6#5 +1 x#6#6 +1 x#6#7 +1 x#7#6 -2 y#6#6 = +0
 inner_area_30: +1 x#5#7 +1 x#6#6 +1 x#6#7 +1 x#6#8 +1 x#7#7 -2 y#6#7 = +0
 inner_area_31: +1 x#6#2 +1 x#7#1 +1 x#7#2 +1 x#7#3 +1 x#8#2 -2 y#7#2 = +0
 inner_area_32: +1 x#6#3 +1 x#7#2 +1 x#7#3 +1 x#7#4 +1 x#8#3 -2 y#7#3 = +0
 inner_area_33: +1 x#6#4 +1 x#7#3 +1 x#7#4 +1 x#7#5 +1 x#8#4 -2 y#7#4 = +0
 inner_area_34: +1 x#6#5 +1 x#7#4 +1 x#7#5 +1 x#7#6 +1 x#8#5 -2 y#7#5 = +0
 inner_area_35: +1 x#6#6 +1 x#7#5 +1 x#7#6 +1 x#7#7 +1 x#8#6 -2 y#7#6 = +0
 inner_area_36: +1 x#6#7 +1 x#7#6 +1 x#7#7 +1 x#7#8 +1 x#8#7 -2 y#7#7 = +0
 upper_border_1: +1 x#1#1 +1 x#1#2 +1 x#1#3 +1 x#2#2 -2 y#1#2 = +0
 upper_border_2: +1 x#1#2 +1 x#1#3 +1 x#1#4 +1 x#2#3 -2 y#1#3 = +0
 upper_border_3: +1 x#1#3 +1 x#1#4 +1 x#1#5 +1 x#2#4 -2 y#1#4 = +0
 upper_border_4: +1 x#1#4 +1 x#1#5 +1 x#1#6 +1 x#2#5 -2 y#1#5 = +0
 upper_border_5: +1 x#1#5 +1 x#1#6 +1 x#1#7 +1 x#2#6 -2 y#1#6 = +0
 upper_border_6: +1 x#1#6 +1 x#1#7 +1 x#1#8 +1 x#2#7 -2 y#1#7 = +0
 lower_border_1: +1 x#7#2 +1 x#8#1 +1 x#8#2 +1 x#8#3 -2 y#8#2 = +0
 lower_border_2: +1 x#7#3 +1 x#8#2 +1 x#8#3 +1 x#8#4 -2 y#8#3 = +0
 lower_border_3: +1 x#7#4 +1 x#8#3 +1 x#8#4 +1 x#8#5 -2 y#8#4 = +0
 lower_border_4: +1 x#7#5 +1 x#8#4 +1 x#8#5 +1 x#8#6 -2 y#8#5 = +0
 lower_border_5: +1 x#7#6 +1 x#8#5 +1 x#8#6 +1 x#8#7 -2 y#8#6 = +0
 lower_border_6: +1 x#7#7 +1 x#8#6 +1 x#8#7 +1 x#8#8 -2 y#8#7 = +0
 left_border_1: +1 x#1#1 +1 x#2#1 +1 x#2#2 +1 x#3#1 -2 y#2#1 = +0
 left_border_2: +1 x#2#1 +1 x#3#1 +1 x#3#2 +1 x#4#1 -2 y#3#1 = +0
 left_border_3: +1 x#3#1 +1 x#4#1 +1 x#4#2 +1 x#5#1 -2 y#4#1 = +0
 left_border_4: +1 x#4#1 +1 x#5#1 +1 x#5#2 +1 x#6#1 -2 y#5#1 = +0
 left_border_5: +1 x#5#1 +1 x#6#1 +1 x#6#2 +1 x#7#1 -2 y#6#1 = +0
 left_border_6: +1 x#6#1 +1 x#7#1 +1 x#7#2 +1 x#8#1 -2 y#7#1 = +0
 right_border_1: +1 x#1#8 +1 x#2#7 +1 x#2#8 +1 x#3#8 -2 y#2#8 = +0
 right_border_2: +1 x#2#8 +1 x#3#7 +1 x#3#8 +1 x#4#8 -2 y#3#8 = +0
 right_border_3: +1 x#3#8 +1 x#4#7 +1 x#4#8 +1 x#5#8 -2 y#4#8 = +0
 right_border_4: +1 x#4#8 +1 x#5#7 +1 x#5#8 +1 x#6#8 -2 y#5#8 = +0
 right_border_5: +1 x#5#8 +1 x#6#7 +1 x#6#8 +1 x#7#8 -2 y#6#8 = +0
 right_border_6: +1 x#6#8 +1 x#7#7 +1 x#7#8 +1 x#8#8 -2 y#7#8 = +0
 left_upper_co@3c: +1 x#1#1 +1 x#1#2 +1 x#2#1 -2 y#1#1 = -1
 left_lower_co@3d: +1 x#7#1 +1 x#8#1 +1 x#8#2 -2 y#8#1 = +0
 right_upper_c@3e: +1 x#1#7 +1 x#1#8 +1 x#2#8 -2 y#1#8 = +0
 right_lower_c@3f: +1 x#7#8 +1 x#8#7 +1 x#8#8 -2 y#8#8 = +0
Bounds
 0 <= x#8#8 <= 1
 0 <= x#1#1 <= 1
 0 <= x#1#2 <= 1
 0 <= x#1#3 <= 1
 0 <= x#1#4 <= 1
 0 <= x#1#5 <= 1
 0 <= x#1#6 <= 1
 0 <= x#1#7 <= 1
 0 <= x#1#8 <= 1
 0 <= x#2#1 <= 1
 0 <= x#2#2 <= 1
 0 <= x#2#3 <= 1
 0 <= x#2#4 <= 1
 0 <= x#2#5 <= 1
 0 <= x#2#6 <= 1
 0 <= x#2#7 <= 1
 0 <= x#2#8 <= 1
 0 <= x#3#1 <= 1
 0 <= x#3#2 <= 1
 0 <= x#3#3 <= 1
 0 <= x#3#4 <= 1
 0 <= x#3#5 <= 1
 0 <= x#3#6 <= 1
 0 <= x#3#7 <= 1
 0 <= x#3#8 <= 1
 0 <= x#4#1 <= 1
 0 <= x#4#2 <= 1
 0 <= x#4#3 <= 1
 0 <= x#4#4 <= 1
 0 <= x#4#5 <= 1
 0 <= x#4#6 <= 1
 0 <= x#4#7 <= 1
 0 <= x#4#8 <= 1
 0 <= x#5#1 <= 1
 0 <= x#5#2 <= 1
 0 <= x#5#3 <= 1
 0 <= x#5#4 <= 1
 0 <= x#5#5 <= 1
 0 <= x#5#6 <= 1
 0 <= x#5#7 <= 1
 0 <= x#5#8 <= 1
 0 <= x#6#1 <= 1
 0 <= x#6#2 <= 1
 0 <= x#6#3 <= 1
 0 <= x#6#4 <= 1
 0 <= x#6#5 <= 1
 0 <= x#6#6 <= 1
 0 <= x#6#7 <= 1
 0 <= x#6#8 <= 1
 0 <= x#7#1 <= 1
 0 <= x#7#2 <= 1
 0 <= x#7#3 <= 1
 0 <= x#7#4 <= 1
 0 <= x#7#5 <= 1
 0 <= x#7#6 <= 1
 0 <= x#7#7 <= 1
 0 <= x#7#8 <= 1
 0 <= x#8#1 <= 1
 0 <= x#8#2 <= 1
 0 <= x#8#3 <= 1
 0 <= x#8#4 <= 1
 0 <= x#8#5 <= 1
 0 <= x#8#6 <= 1
 0 <= x#8#7 <= 1
Binaries
 x#8#8 x#1#1 x#1#2 x#1#3 x#1#4 x#1#5 x#1#6 x#1#7 x#1#8 x#2#1 x#2#2 x#2#3 x#2#4 x#2#5 x#2#6 x#2#7 x#2#8
 x#3#1 x#3#2 x#3#3 x#3#4 x#3#5 x#3#6 x#3#7 x#3#8 x#4#1 x#4#2 x#4#3 x#4#4 x#4#5 x#4#6 x#4#7 x#4#8 x#5#1
 x#5#2 x#5#3 x#5#4 x#5#5 x#5#6 x#5#7 x#5#8 x#6#1 x#6#2 x#6#3 x#6#4 x#6#5 x#6#6 x#6#7 x#6#8 x#7#1 x#7#2
 x#7#3 x#7#4 x#7#5 x#7#6 x#7#7 x#7#8 x#8#1 x#8#2 x#8#3 x#8#4 x#8#5 x#8#6 x#8#7
Generals
 y#1#8 y#8#1 y#1#1 y#7#8 y#6#8 y#5#8 y#4#8 y#3#8 y#2#8 y#7#1 y#6#1 y#5#1 y#4#1 y#3#1 y#2#1 y#8#7 y#8#6
 y#8#5 y#8#4 y#8#3 y#8#2 y#1#7 y#1#6 y#1#5 y#1#4 y#1#3 y#1#2 y#7#7 y#7#6 y#7#5 y#7#4 y#7#3 y#7#2 y#6#7
 y#6#6 y#6#5 y#6#4 y#6#3 y#6#2 y#5#7 y#5#6 y#5#5 y#5#4 y#5#3 y#5#2 y#4#7 y#4#6 y#4#5 y#4#4 y#4#3 y#4#2
 y#3#7 y#3#6 y#3#5 y#3#4 y#3#3 y#3#2 y#2#7 y#2#6 y#2#5 y#2#4 y#2#3 y#2#2 y#8#8
End
